solution status: optimal solution found
objective value:                     103333.874073029
x76                                                 1 	(obj:1199.39964294434)
x140                                                1 	(obj:0)
x291                                                1 	(obj:1199.39964294434)
x373                                                1 	(obj:2241.60003662109)
x446                                                1 	(obj:0)
x618                                                1 	(obj:2241.60003662109)
x675                                                1 	(obj:2241.60003662109)
x814                                                1 	(obj:2241.60003662109)
x896                                                1 	(obj:1199.39964294434)
x1019                                               1 	(obj:2241.60003662109)
x1127                                               1 	(obj:1199.39964294434)
x1250                                               1 	(obj:1199.39964294434)
x1354                                               1 	(obj:2241.60003662109)
x1467                                               1 	(obj:2241.60003662109)
x1521                                               1 	(obj:1199.39964294434)
x1646                                               1 	(obj:2241.60003662109)
x1765                                               1 	(obj:1199.39964294434)
x1842                                               1 	(obj:2241.60003662109)
x1952                                               1 	(obj:2241.60003662109)
x2058                                               1 	(obj:2241.60003662109)
x2143                                               1 	(obj:1117.79960632324)
x2303                                               1 	(obj:1199.39964294434)
x2344                                               1 	(obj:0)
x2518                                               1 	(obj:2241.60003662109)
x2521                                               1 	(obj:0)
x2716                                               1 	(obj:2241.60003662109)
x2808                                               1 	(obj:1199.39964294434)
x2932                                               1 	(obj:2241.60003662109)
x2987                                               1 	(obj:1199.39964294434)
x3070                                               1 	(obj:0)
x3220                                               1 	(obj:2241.60003662109)
x3274                                               1 	(obj:0)
x3459                                               1 	(obj:1199.39964294434)
x3532                                               1 	(obj:2241.60003662109)
x3585                                               1 	(obj:0)
x3723                                               1 	(obj:916.199798583984)
x3866                                               1 	(obj:1117.79960632324)
x3898                                               1 	(obj:0)
x4072                                               1 	(obj:2241.60003662109)
x4184                                               1 	(obj:1199.39964294434)
x4233                                               1 	(obj:970.799789428711)
x4332                                               1 	(obj:1193.39973449707)
x4416                                               1 	(obj:2128.37127685547)
x4603                                               1 	(obj:0)
x4631                                               1 	(obj:1193.39973449707)
x4774                                               1 	(obj:0)
x4862                                               1 	(obj:1193.39973449707)
x5003                                               1 	(obj:0)
x5063                                               1 	(obj:970.799789428711)
x5175                                               1 	(obj:2128.37127685547)
x5287                                               1 	(obj:1193.39973449707)
x5455                                               1 	(obj:0)
x5481                                               1 	(obj:1193.39973449707)
x5577                                               1 	(obj:970.799789428711)
x5678                                               1 	(obj:2128.37127685547)
x5782                                               1 	(obj:1193.39973449707)
x5964                                               1 	(obj:0)
x6044                                               1 	(obj:0)
x6144                                               1 	(obj:0)
x6213                                               1 	(obj:970.799789428711)
x6404                                               1 	(obj:0)
x6441                                               1 	(obj:1193.39973449707)
x6597                                               1 	(obj:0)
x6675                                               1 	(obj:0)
x6725                                               1 	(obj:1193.39973449707)
x6825                                               1 	(obj:2128.37127685547)
x6968                                               1 	(obj:1193.39973449707)
x7088                                               1 	(obj:0)
x7154                                               1 	(obj:1193.39973449707)
x7276                                               1 	(obj:2128.37127685547)
x7423                                               1 	(obj:0)
x7535                                               1 	(obj:0)
x7569                                               1 	(obj:2128.37127685547)
x7704                                               1 	(obj:1193.39973449707)
x7866                                               1 	(obj:0)
x7895                                               1 	(obj:1193.39973449707)
x8030                                               1 	(obj:0)
x8151                                               1 	(obj:0)
x8265                                               1 	(obj:0)
x8359                                               1 	(obj:0)
x8440                                               1 	(obj:0)
x8551                                               1 	(obj:0)
x8671                                               1 	(obj:0)
x8807                                               1 	(obj:0)
x8836                                               1 	(obj:2128.37127685547)
x8977                                               1 	(obj:0)
x9047                                               1 	(obj:1193.39973449707)
x9157                                               1 	(obj:970.799789428711)
x9264                                               1 	(obj:2128.37127685547)
x9417                                               1 	(obj:0)
x9479                                               1 	(obj:2128.37127685547)
x9597                                               1 	(obj:0)
x9670                                               1 	(obj:2128.37127685547)
x9820                                               1 	(obj:0)
x9914                                               1 	(obj:0)
x10076                                              1 	(obj:321.599979400635)
x10084                                              1 	(obj:1193.39973449707)
x10268                                              1 	(obj:0)
x10355                                              1 	(obj:0)
x10436                                              1 	(obj:0)
x10528                                              1 	(obj:1193.39973449707)
x10608                                              1 	(obj:2128.37127685547)
x10779                                              1 	(obj:0)
x10905                                              1 	(obj:0)
x10922                                              1 	(obj:1193.39973449707)
x11025                                          34080 	(obj:0)
x11026                                          29425 	(obj:0)
x11027                                          25564 	(obj:0)
x11028                               17615.5716018677 	(obj:0)
x11029                                          36490 	(obj:0)
x11030                               18509.4281463623 	(obj:0)
x11031                                          27073 	(obj:0)
x11032                                          11093 	(obj:0)
x11033                                          32093 	(obj:0)
x11034                                          32393 	(obj:0)
x11035                                          33098 	(obj:0)
x11036                                           8416 	(obj:0)
x11037                                          25840 	(obj:0)
x11038                                          37562 	(obj:0)
x11039                                          28362 	(obj:0)
x11040                                          33993 	(obj:0)
x11041                                          12947 	(obj:0)
x11042                                           8285 	(obj:0)
x11043                                          11568 	(obj:0)
x11044                                          24722 	(obj:0)
x11045                                          17823 	(obj:0)
x11046                                          31848 	(obj:0)
x11047                               18946.0286865234 	(obj:0)
x11048                                           4783 	(obj:0)
x11049                                          36807 	(obj:0)
x11050                               21800.9997711182 	(obj:0)
x11051                                          32544 	(obj:0)
x11052                               19903.4688110352 	(obj:0)
x11053                                          33229 	(obj:0)
x11054                                          26587 	(obj:0)
x11055                                          12635 	(obj:0)
x11056                                           8966 	(obj:0)
x11057                                          38721 	(obj:0)
x11058                                          27199 	(obj:0)
x11059                               16190.8285675049 	(obj:0)
x11060                                          31249 	(obj:0)
x11061                               21705.2006225586 	(obj:0)
x11062                                          12793 	(obj:0)
x11063                               18185.8855285645 	(obj:0)
x11064                               21583.6241455078 	(obj:0)
x11065                               22687.2006225586 	(obj:0)
x11066                                          14583 	(obj:0)
x11067                                          12987 	(obj:0)
x11068                               22116.9713134766 	(obj:0)
x11069                                          39617 	(obj:0)
x11070                                           9857 	(obj:0)
x11071                                          23100 	(obj:0)
x11072                                          32316 	(obj:0)
x11073                                          29958 	(obj:0)
x11074                                          16033 	(obj:0)
x11075                                          23795 	(obj:0)
x11076                                          11034 	(obj:0)
x11077                                          40581 	(obj:0)
x11078                                          16964 	(obj:0)
x11079                                           9865 	(obj:0)
x11080                               16941.9292259216 	(obj:0)
x11081                                          30246 	(obj:0)
x11082                                           8747 	(obj:0)
x11083                                           9366 	(obj:0)
x11084                                          12725 	(obj:0)
x11085                                          29815 	(obj:0)
x11086                                          35940 	(obj:0)
x11087                                           8060 	(obj:0)
x11088                                           6746 	(obj:0)
x11089                               29215.7993774414 	(obj:0)
